
Gurobi 6.5.2 (linux64) logging started Wed Mar 15 12:59:48 2017


Gurobi 6.5.2 (linux64) logging started Wed Mar 15 12:59:48 2017

Optimize a model with 401 rows, 6170 columns and 16567 nonzeros
Coefficient statistics:
  Matrix range    [1e+00, 2e+00]
  Objective range [1e+00, 1e+02]
  Bounds range    [1e+00, 1e+00]
  RHS range       [1e+00, 1e+00]
Presolve removed 103 rows and 1 columns
Presolve time: 0.02s
Presolved: 298 rows, 6169 columns, 14269 nonzeros
Variable types: 0 continuous, 6169 integer (6169 binary)

Root relaxation: objective 1.636500e+03, 264 iterations, 0.00 seconds

    Nodes    |    Current Node    |     Objective Bounds      |     Work
 Expl Unexpl |  Obj  Depth IntInf | Incumbent    BestBd   Gap | It/Node Time

     0     0 1636.50000    0   40          - 1636.50000      -     -    0s
     0     0 1671.80000    0   24          - 1671.80000      -     -    0s
     0     0 1676.00000    0    4          - 1676.00000      -     -    0s
     0     0 1676.53846    0   22          - 1676.53846      -     -    0s
     0     0 1676.60000    0   25          - 1676.60000      -     -    0s
     0     0 1677.80000    0   26          - 1677.80000      -     -    0s
     0     0 1677.81250    0   30          - 1677.81250      -     -    0s
     0     0 1677.90909    0   30          - 1677.90909      -     -    0s
     0     0 1677.90909    0   24          - 1677.90909      -     -    0s
     0     2 1677.90909    0   24          - 1677.90909      -     -    1s
* 3030  2835             506    2277.0000000 1678.90909  26.3%   7.3    3s
  3137  2926 2083.00000  383   18 2277.00000 1679.50000  26.2%   7.3    6s

Cutting planes:
  Gomory: 30
  Cover: 104
  MIR: 7
  Flow cover: 18
  Zero half: 4
  Lazy constraints: 35

Explored 3172 nodes (24136 simplex iterations) in 10.00 seconds
Thread count was 8 (of 8 available processors)

Time limit reached
Best objective 2.277000000000e+03, best bound 1.686000000000e+03, gap 25.9552%
